Minimize
  obj: x0 + x1 + x2 + x3 + x4 + x5 + x6 + x7 + x8 + x9 + x10

Subject To
  c0: x0 + x1 + x3 + x10 = 199
  c1: x0 + x2 + x3 + x4 + x7 = 196
  c2: x0 + x1 + x2 + x3 + x6 + x7 + x9 + x10 = 223
  c3: x0 + x1 + x2 + x7 + x10 = 46
  c4: x0 + x1 + x2 + x3 + x7 = 186
  c5: x0 + x4 + x6 + x10 = 54
  c6: x1 + x3 + x4 + x5 + x7 + x9 = 208
  c7: x0 + x3 + x7 + x8 + x9 + x10 = 231
  c8: x1 + x4 + x5 + x6 + x8 + x9 = 60
  c9: x2 + x3 + x4 + x6 + x9 + x10 = 208

Bounds
  x0 >= 0
  x1 >= 0
  x2 >= 0
  x3 >= 0
  x4 >= 0
  x5 >= 0
  x6 >= 0
  x7 >= 0
  x8 >= 0
  x9 >= 0
  x10 >= 0

Generals
  x0 x1 x2 x3 x4 x5 x6 x7 x8 x9 x10

End
